70
1 0 24
2 0 31
2 1 57
3 0 25
3 1 31
3 2 10
4 0 16
4 1 59
4 2 56
4 3 44
5 0 32
5 1 52
5 2 31
5 3 12
5 4 44
6 0 41
6 1 40
6 2 6
6 3 24
6 4 31
6 5 24
7 0 29
7 1 25
7 2 28
7 3 36
7 4 28
7 5 38
7 6 42
8 0 52
8 1 43
8 2 1
8 3 41
8 4 15
8 5 45
8 6 23
8 7 29
9 0 32
9 1 45
9 2 58
9 3 18
9 4 8
9 5 33
9 6 37
9 7 24
9 8 30
10 0 46
10 1 59
10 2 22
10 3 55
10 4 32
10 5 16
10 6 9
10 7 47
10 8 48
10 9 22
11 0 26
11 1 54
11 2 42
11 3 18
11 4 20
11 5 25
11 6 8
11 7 29
11 8 20
11 9 16
11 10 35
12 0 8
12 1 2
12 2 29
12 3 59
12 4 48
12 5 4
12 6 32
12 7 59
12 8 57
12 9 27
12 10 40
12 11 2
13 0 4
13 1 57
13 2 51
13 3 58
13 4 30
13 5 22
13 6 53
13 7 20
13 8 18
13 9 54
13 10 34
13 11 15
13 12 39
14 0 49
14 1 22
14 2 56
14 3 39
14 4 8
14 5 31
14 6 47
14 7 27
14 8 19
14 9 49
14 10 58
14 11 9
14 12 43
14 13 34
15 0 52
15 1 60
15 2 32
15 3 3
15 4 31
15 5 30
15 6 41
15 7 2
15 8 23
15 9 48
15 10 27
15 11 41
15 12 45
15 13 26
15 14 7
16 0 15
16 1 36
16 2 57
16 3 51
16 4 16
16 5 60
16 6 25
16 7 34
16 8 59
16 9 3
16 10 42
16 11 30
16 12 35
16 13 7
16 14 49
16 15 37
17 0 5
17 1 56
17 2 1
17 3 28
17 4 17
17 5 37
17 6 17
17 7 41
17 8 53
17 9 45
17 10 24
17 11 18
17 12 45
17 13 15
17 14 46
17 15 57
17 16 58
18 0 23
18 1 41
18 2 11
18 3 14
18 4 21
18 5 42
18 6 41
18 7 33
18 8 18
18 9 15
18 10 3
18 11 16
18 12 29
18 13 48
18 14 32
18 15 16
18 16 19
18 17 2
19 0 44
19 1 24
19 2 1
19 3 59
19 4 15
19 5 42
19 6 34
19 7 1
19 8 50
19 9 1
19 10 56
19 11 3
19 12 22
19 13 3
19 14 49
19 15 37
19 16 54
19 17 45
19 18 29
20 0 22
20 1 25
20 2 50
20 3 8
20 4 23
20 5 14
20 6 48
20 7 19
20 8 14
20 9 60
20 10 34
20 11 56
20 12 41
20 13 53
20 14 48
20 15 10
20 16 29
20 17 20
20 18 24
20 19 9
21 0 43
21 1 26
21 2 48
21 3 11
21 4 36
21 5 51
21 6 1
21 7 6
21 8 31
21 9 53
21 10 37
21 11 49
21 12 5
21 13 6
21 14 8
21 15 17
21 16 11
21 17 23
21 18 19
21 19 16
21 20 22
22 0 45
22 1 32
22 2 52
22 3 9
22 4 59
22 5 10
22 6 33
22 7 59
22 8 57
22 9 38
22 10 10
22 11 52
22 12 18
22 13 38
22 14 7
22 15 15
22 16 44
22 17 28
22 18 49
22 19 13
22 20 13
22 21 51
23 0 5
23 1 17
23 2 45
23 3 20
23 4 54
23 5 29
23 6 25
23 7 12
23 8 59
23 9 22
23 10 6
23 11 49
23 12 47
23 13 7
23 14 59
23 15 19
23 16 13
23 17 51
23 18 32
23 19 31
23 20 56
23 21 60
23 22 54
24 0 9
24 1 57
24 2 17
24 3 40
24 4 2
24 5 20
24 6 27
24 7 35
24 8 34
24 9 42
24 10 1
24 11 34
24 12 46
24 13 5
24 14 46
24 15 11
24 16 55
24 17 23
24 18 19
24 19 23
24 20 59
24 21 23
24 22 36
24 23 8
25 0 11
25 1 7
25 2 34
25 3 23
25 4 36
25 5 53
25 6 43
25 7 21
25 8 8
25 9 27
25 10 15
25 11 1
25 12 15
25 13 15
25 14 43
25 15 39
25 16 56
25 17 15
25 18 56
25 19 19
25 20 13
25 21 11
25 22 60
25 23 55
25 24 54
26 0 8
26 1 2
26 2 20
26 3 31
26 4 45
26 5 51
26 6 24
26 7 37
26 8 33
26 9 39
26 10 4
26 11 48
26 12 56
26 13 39
26 14 48
26 15 13
26 16 17
26 17 59
26 18 15
26 19 28
26 20 44
26 21 18
26 22 31
26 23 3
26 24 51
26 25 6
27 0 42
27 1 43
27 2 18
27 3 41
27 4 35
27 5 34
27 6 3
27 7 3
27 8 30
27 9 39
27 10 45
27 11 20
27 12 52
27 13 26
27 14 30
27 15 28
27 16 47
27 17 17
27 18 57
27 19 19
27 20 55
27 21 57
27 22 28
27 23 27
27 24 21
27 25 47
27 26 59
28 0 3
28 1 6
28 2 51
28 3 31
28 4 57
28 5 49
28 6 31
28 7 39
28 8 34
28 9 21
28 10 4
28 11 26
28 12 29
28 13 40
28 14 16
28 15 30
28 16 35
28 17 7
28 18 9
28 19 9
28 20 14
28 21 51
28 22 21
28 23 4
28 24 1
28 25 12
28 26 40
28 27 46
29 0 38
29 1 13
29 2 54
29 3 37
29 4 25
29 5 33
29 6 60
29 7 38
29 8 12
29 9 30
29 10 58
29 11 55
29 12 46
29 13 56
29 14 20
29 15 36
29 16 56
29 17 13
29 18 53
29 19 43
29 20 7
29 21 43
29 22 5
29 23 12
29 24 54
29 25 2
29 26 24
29 27 11
29 28 47
30 0 28
30 1 20
30 2 4
30 3 30
30 4 6
30 5 4
30 6 4
30 7 13
30 8 38
30 9 49
30 10 20
30 11 45
30 12 50
30 13 27
30 14 47
30 15 27
30 16 2
30 17 54
30 18 10
30 19 25
30 20 36
30 21 28
30 22 9
30 23 21
30 24 29
30 25 4
30 26 18
30 27 2
30 28 60
30 29 45
31 0 18
31 1 17
31 2 9
31 3 32
31 4 52
31 5 50
31 6 59
31 7 60
31 8 1
31 9 40
31 10 9
31 11 13
31 12 55
31 13 35
31 14 24
31 15 14
31 16 12
31 17 58
31 18 47
31 19 50
31 20 31
31 21 16
31 22 40
31 23 26
31 24 60
31 25 30
31 26 4
31 27 30
31 28 30
31 29 45
31 30 42
32 0 39
32 1 59
32 2 41
32 3 52
32 4 19
32 5 33
32 6 13
32 7 58
32 8 43
32 9 45
32 10 13
32 11 21
32 12 32
32 13 13
32 14 39
32 15 52
32 16 29
32 17 53
32 18 35
32 19 3
32 20 39
32 21 14
32 22 1
32 23 9
32 24 26
32 25 18
32 26 27
32 27 11
32 28 9
32 29 33
32 30 36
32 31 47
33 0 4
33 1 41
33 2 35
33 3 40
33 4 7
33 5 55
33 6 54
33 7 44
33 8 33
33 9 38
33 10 27
33 11 21
33 12 29
33 13 5
33 14 49
33 15 14
33 16 1
33 17 43
33 18 26
33 19 57
33 20 14
33 21 25
33 22 20
33 23 1
33 24 23
33 25 18
33 26 45
33 27 9
33 28 11
33 29 26
33 30 27
33 31 60
33 32 43
34 0 16
34 1 56
34 2 32
34 3 43
34 4 33
34 5 40
34 6 54
34 7 56
34 8 27
34 9 4
34 10 30
34 11 4
34 12 41
34 13 44
34 14 21
34 15 20
34 16 6
34 17 30
34 18 10
34 19 40
34 20 10
34 21 55
34 22 54
34 23 18
34 24 57
34 25 26
34 26 15
34 27 55
34 28 41
34 29 29
34 30 37
34 31 52
34 32 19
34 33 55
35 0 44
35 1 3
35 2 11
35 3 51
35 4 28
35 5 27
35 6 52
35 7 40
35 8 49
35 9 29
35 10 60
35 11 48
35 12 15
35 13 30
35 14 24
35 15 24
35 16 26
35 17 15
35 18 60
35 19 23
35 20 30
35 21 13
35 22 13
35 23 58
35 24 4
35 25 51
35 26 48
35 27 1
35 28 49
35 29 17
35 30 34
35 31 52
35 32 17
35 33 11
35 34 9
36 0 7
36 1 10
36 2 35
36 3 48
36 4 48
36 5 23
36 6 59
36 7 12
36 8 58
36 9 36
36 10 59
36 11 21
36 12 25
36 13 53
36 14 19
36 15 10
36 16 12
36 17 57
36 18 7
36 19 33
36 20 7
36 21 3
36 22 31
36 23 43
36 24 24
36 25 6
36 26 10
36 27 22
36 28 11
36 29 19
36 30 13
36 31 46
36 32 26
36 33 56
36 34 45
36 35 50
37 0 44
37 1 47
37 2 50
37 3 4
37 4 45
37 5 5
37 6 38
37 7 27
37 8 18
37 9 28
37 10 10
37 11 9
37 12 35
37 13 20
37 14 46
37 15 16
37 16 57
37 17 44
37 18 23
37 19 8
37 20 2
37 21 41
37 22 60
37 23 59
37 24 12
37 25 28
37 26 9
37 27 45
37 28 59
37 29 17
37 30 6
37 31 37
37 32 29
37 33 27
37 34 12
37 35 19
37 36 6
38 0 51
38 1 35
38 2 24
38 3 12
38 4 25
38 5 60
38 6 1
38 7 24
38 8 57
38 9 45
38 10 60
38 11 38
38 12 19
38 13 47
38 14 58
38 15 7
38 16 57
38 17 31
38 18 5
38 19 11
38 20 21
38 21 50
38 22 38
38 23 4
38 24 43
38 25 33
38 26 19
38 27 37
38 28 7
38 29 4
38 30 9
38 31 16
38 32 50
38 33 7
38 34 26
38 35 39
38 36 32
38 37 47
39 0 51
39 1 5
39 2 49
39 3 13
39 4 60
39 5 21
39 6 56
39 7 49
39 8 44
39 9 42
39 10 49
39 11 32
39 12 8
39 13 5
39 14 53
39 15 51
39 16 10
39 17 59
39 18 6
39 19 33
39 20 55
39 21 13
39 22 13
39 23 8
39 24 32
39 25 45
39 26 15
39 27 35
39 28 48
39 29 21
39 30 44
39 31 11
39 32 9
39 33 32
39 34 3
39 35 57
39 36 38
39 37 19
39 38 9
40 0 15
40 1 58
40 2 28
40 3 6
40 4 56
40 5 47
40 6 36
40 7 46
40 8 26
40 9 41
40 10 56
40 11 8
40 12 7
40 13 47
40 14 47
40 15 16
40 16 40
40 17 41
40 18 14
40 19 57
40 20 22
40 21 11
40 22 11
40 23 19
40 24 29
40 25 14
40 26 1
40 27 16
40 28 8
40 29 48
40 30 32
40 31 18
40 32 24
40 33 38
40 34 46
40 35 3
40 36 31
40 37 16
40 38 60
40 39 48
41 0 21
41 1 35
41 2 58
41 3 42
41 4 38
41 5 54
41 6 6
41 7 18
41 8 33
41 9 23
41 10 23
41 11 51
41 12 40
41 13 59
41 14 1
41 15 29
41 16 25
41 17 38
41 18 4
41 19 59
41 20 20
41 21 15
41 22 49
41 23 57
41 24 6
41 25 32
41 26 24
41 27 37
41 28 56
41 29 50
41 30 2
41 31 25
41 32 50
41 33 39
41 34 52
41 35 19
41 36 48
41 37 25
41 38 12
41 39 15
41 40 1
42 0 31
42 1 53
42 2 20
42 3 33
42 4 52
42 5 43
42 6 42
42 7 11
42 8 32
42 9 26
42 10 3
42 11 25
42 12 5
42 13 38
42 14 18
42 15 32
42 16 40
42 17 36
42 18 56
42 19 35
42 20 8
42 21 52
42 22 58
42 23 29
42 24 33
42 25 2
42 26 30
42 27 36
42 28 58
42 29 15
42 30 24
42 31 42
42 32 23
42 33 16
42 34 39
42 35 44
42 36 7
42 37 59
42 38 5
42 39 16
42 40 9
42 41 55
43 0 60
43 1 24
43 2 5
43 3 3
43 4 31
43 5 13
43 6 43
43 7 56
43 8 43
43 9 31
43 10 40
43 11 58
43 12 11
43 13 9
43 14 10
43 15 26
43 16 11
43 17 6
43 18 6
43 19 24
43 20 45
43 21 27
43 22 6
43 23 48
43 24 18
43 25 34
43 26 1
43 27 15
43 28 51
43 29 23
43 30 9
43 31 21
43 32 32
43 33 22
43 34 9
43 35 36
43 36 15
43 37 49
43 38 23
43 39 8
43 40 39
43 41 21
43 42 7
44 0 1
44 1 36
44 2 53
44 3 2
44 4 28
44 5 10
44 6 25
44 7 42
44 8 48
44 9 23
44 10 15
44 11 4
44 12 29
44 13 30
44 14 56
44 15 16
44 16 41
44 17 40
44 18 22
44 19 2
44 20 27
44 21 53
44 22 28
44 23 46
44 24 12
44 25 58
44 26 8
44 27 50
44 28 9
44 29 48
44 30 10
44 31 49
44 32 47
44 33 54
44 34 48
44 35 45
44 36 55
44 37 27
44 38 35
44 39 22
44 40 25
44 41 59
44 42 12
44 43 19
45 0 52
45 1 33
45 2 5
45 3 24
45 4 56
45 5 6
45 6 5
45 7 35
45 8 45
45 9 11
45 10 39
45 11 17
45 12 6
45 13 21
45 14 59
45 15 6
45 16 53
45 17 2
45 18 26
45 19 8
45 20 7
45 21 24
45 22 60
45 23 21
45 24 47
45 25 41
45 26 33
45 27 52
45 28 57
45 29 8
45 30 18
45 31 58
45 32 1
45 33 13
45 34 39
45 35 14
45 36 12
45 37 2
45 38 22
45 39 13
45 40 31
45 41 56
45 42 45
45 43 25
45 44 44
46 0 46
46 1 5
46 2 28
46 3 14
46 4 25
46 5 53
46 6 52
46 7 45
46 8 22
46 9 30
46 10 47
46 11 17
46 12 34
46 13 59
46 14 30
46 15 47
46 16 47
46 17 27
46 18 36
46 19 20
46 20 12
46 21 28
46 22 11
46 23 2
46 24 3
46 25 53
46 26 28
46 27 36
46 28 25
46 29 16
46 30 40
46 31 37
46 32 37
46 33 59
46 34 53
46 35 56
46 36 36
46 37 27
46 38 40
46 39 17
46 40 31
46 41 6
46 42 13
46 43 41
46 44 17
46 45 11
47 0 28
47 1 51
47 2 40
47 3 20
47 4 38
47 5 36
47 6 30
47 7 31
47 8 43
47 9 16
47 10 48
47 11 2
47 12 18
47 13 24
47 14 2
47 15 20
47 16 37
47 17 20
47 18 45
47 19 58
47 20 25
47 21 27
47 22 17
47 23 7
47 24 26
47 25 2
47 26 22
47 27 18
47 28 32
47 29 14
47 30 51
47 31 5
47 32 24
47 33 35
47 34 38
47 35 18
47 36 50
47 37 46
47 38 48
47 39 50
47 40 46
47 41 58
47 42 29
47 43 54
47 44 36
47 45 45
47 46 46
48 0 35
48 1 27
48 2 22
48 3 54
48 4 56
48 5 34
48 6 58
48 7 31
48 8 57
48 9 46
48 10 60
48 11 38
48 12 13
48 13 42
48 14 5
48 15 32
48 16 3
48 17 39
48 18 44
48 19 7
48 20 18
48 21 37
48 22 53
48 23 57
48 24 24
48 25 10
48 26 15
48 27 13
48 28 8
48 29 29
48 30 51
48 31 34
48 32 8
48 33 20
48 34 2
48 35 5
48 36 22
48 37 46
48 38 10
48 39 16
48 40 51
48 41 16
48 42 43
48 43 39
48 44 30
48 45 10
48 46 10
48 47 19
49 0 50
49 1 44
49 2 24
49 3 32
49 4 46
49 5 29
49 6 3
49 7 17
49 8 3
49 9 57
49 10 18
49 11 27
49 12 50
49 13 51
49 14 6
49 15 46
49 16 22
49 17 45
49 18 22
49 19 57
49 20 8
49 21 44
49 22 15
49 23 38
49 24 33
49 25 3
49 26 10
49 27 49
49 28 13
49 29 16
49 30 8
49 31 14
49 32 30
49 33 47
49 34 49
49 35 41
49 36 34
49 37 27
49 38 17
49 39 6
49 40 25
49 41 53
49 42 11
49 43 20
49 44 30
49 45 37
49 46 5
49 47 28
49 48 58
50 0 60
50 1 4
50 2 17
50 3 31
50 4 52
50 5 48
50 6 24
50 7 30
50 8 7
50 9 44
50 10 57
50 11 45
50 12 41
50 13 12
50 14 50
50 15 17
50 16 50
50 17 21
50 18 8
50 19 50
50 20 26
50 21 25
50 22 1
50 23 44
50 24 48
50 25 47
50 26 11
50 27 54
50 28 16
50 29 26
50 30 58
50 31 43
50 32 34
50 33 23
50 34 19
50 35 3
50 36 43
50 37 39
50 38 24
50 39 47
50 40 43
50 41 4
50 42 41
50 43 44
50 44 47
50 45 8
50 46 31
50 47 32
50 48 23
50 49 21
51 0 41
51 1 56
51 2 42
51 3 4
51 4 24
51 5 53
51 6 60
51 7 43
51 8 52
51 9 1
51 10 10
51 11 46
51 12 11
51 13 30
51 14 31
51 15 60
51 16 13
51 17 23
51 18 18
51 19 51
51 20 54
51 21 1
51 22 51
51 23 59
51 24 57
51 25 58
51 26 1
51 27 7
51 28 2
51 29 36
51 30 42
51 31 4
51 32 41
51 33 22
51 34 10
51 35 27
51 36 46
51 37 13
51 38 42
51 39 15
51 40 11
51 41 55
51 42 60
51 43 33
51 44 60
51 45 7
51 46 54
51 47 58
51 48 25
51 49 18
51 50 36
52 0 34
52 1 60
52 2 14
52 3 32
52 4 23
52 5 18
52 6 15
52 7 26
52 8 39
52 9 47
52 10 45
52 11 14
52 12 36
52 13 31
52 14 38
52 15 55
52 16 22
52 17 11
52 18 25
52 19 26
52 20 10
52 21 17
52 22 38
52 23 13
52 24 2
52 25 44
52 26 15
52 27 12
52 28 36
52 29 6
52 30 33
52 31 54
52 32 57
52 33 6
52 34 50
52 35 22
52 36 11
52 37 20
52 38 23
52 39 58
52 40 27
52 41 19
52 42 3
52 43 4
52 44 43
52 45 59
52 46 10
52 47 35
52 48 3
52 49 42
52 50 33
52 51 23
53 0 43
53 1 7
53 2 11
53 3 22
53 4 9
53 5 31
53 6 22
53 7 40
53 8 25
53 9 32
53 10 45
53 11 14
53 12 2
53 13 14
53 14 26
53 15 49
53 16 10
53 17 11
53 18 1
53 19 52
53 20 25
53 21 42
53 22 20
53 23 16
53 24 51
53 25 43
53 26 17
53 27 42
53 28 6
53 29 43
53 30 50
53 31 55
53 32 29
53 33 46
53 34 20
53 35 31
53 36 27
53 37 40
53 38 37
53 39 48
53 40 58
53 41 31
53 42 19
53 43 47
53 44 44
53 45 32
53 46 51
53 47 40
53 48 59
53 49 46
53 50 33
53 51 10
53 52 27
54 0 54
54 1 2
54 2 19
54 3 57
54 4 31
54 5 59
54 6 9
54 7 26
54 8 25
54 9 36
54 10 53
54 11 20
54 12 56
54 13 37
54 14 45
54 15 56
54 16 10
54 17 42
54 18 42
54 19 50
54 20 46
54 21 22
54 22 14
54 23 39
54 24 35
54 25 55
54 26 27
54 27 55
54 28 21
54 29 5
54 30 2
54 31 24
54 32 15
54 33 8
54 34 35
54 35 25
54 36 52
54 37 59
54 38 35
54 39 4
54 40 10
54 41 12
54 42 2
54 43 17
54 44 14
54 45 10
54 46 26
54 47 4
54 48 2
54 49 51
54 50 32
54 51 27
54 52 21
54 53 38
55 0 17
55 1 60
55 2 52
55 3 29
55 4 48
55 5 56
55 6 51
55 7 17
55 8 11
55 9 1
55 10 47
55 11 4
55 12 35
55 13 59
55 14 16
55 15 29
55 16 47
55 17 10
55 18 55
55 19 54
55 20 31
55 21 25
55 22 45
55 23 39
55 24 43
55 25 34
55 26 41
55 27 41
55 28 50
55 29 4
55 30 5
55 31 20
55 32 56
55 33 35
55 34 11
55 35 13
55 36 54
55 37 30
55 38 18
55 39 19
55 40 19
55 41 46
55 42 41
55 43 35
55 44 31
55 45 38
55 46 41
55 47 13
55 48 9
55 49 51
55 50 37
55 51 48
55 52 10
55 53 48
55 54 19
56 0 13
56 1 56
56 2 23
56 3 27
56 4 5
56 5 3
56 6 39
56 7 53
56 8 9
56 9 60
56 10 36
56 11 58
56 12 38
56 13 53
56 14 29
56 15 11
56 16 43
56 17 27
56 18 50
56 19 43
56 20 44
56 21 37
56 22 31
56 23 54
56 24 14
56 25 59
56 26 9
56 27 37
56 28 45
56 29 59
56 30 23
56 31 59
56 32 17
56 33 58
56 34 37
56 35 50
56 36 13
56 37 48
56 38 45
56 39 17
56 40 1
56 41 27
56 42 36
56 43 49
56 44 51
56 45 12
56 46 9
56 47 58
56 48 22
56 49 27
56 50 54
56 51 33
56 52 43
56 53 34
56 54 51
56 55 59
57 0 55
57 1 59
57 2 54
57 3 4
57 4 12
57 5 31
57 6 55
57 7 23
57 8 37
57 9 40
57 10 22
57 11 3
57 12 18
57 13 26
57 14 27
57 15 44
57 16 10
57 17 50
57 18 25
57 19 49
57 20 40
57 21 5
57 22 58
57 23 21
57 24 19
57 25 17
57 26 13
57 27 16
57 28 47
57 29 55
57 30 47
57 31 38
57 32 47
57 33 40
57 34 38
57 35 21
57 36 11
57 37 16
57 38 50
57 39 11
57 40 4
57 41 17
57 42 40
57 43 23
57 44 37
57 45 18
57 46 16
57 47 3
57 48 56
57 49 40
57 50 3
57 51 58
57 52 19
57 53 56
57 54 33
57 55 48
57 56 44
58 0 33
58 1 23
58 2 41
58 3 12
58 4 28
58 5 25
58 6 39
58 7 27
58 8 41
58 9 29
58 10 25
58 11 10
58 12 6
58 13 11
58 14 29
58 15 35
58 16 51
58 17 25
58 18 33
58 19 21
58 20 13
58 21 2
58 22 50
58 23 41
58 24 52
58 25 31
58 26 35
58 27 28
58 28 41
58 29 36
58 30 52
58 31 48
58 32 51
58 33 16
58 34 48
58 35 5
58 36 40
58 37 34
58 38 18
58 39 32
58 40 19
58 41 9
58 42 19
58 43 58
58 44 39
58 45 31
58 46 11
58 47 5
58 48 36
58 49 14
58 50 10
58 51 33
58 52 56
58 53 48
58 54 53
58 55 46
58 56 10
58 57 51
59 0 44
59 1 5
59 2 16
59 3 45
59 4 41
59 5 39
59 6 9
59 7 59
59 8 11
59 9 20
59 10 5
59 11 45
59 12 42
59 13 35
59 14 50
59 15 43
59 16 29
59 17 43
59 18 44
59 19 47
59 20 26
59 21 22
59 22 23
59 23 25
59 24 9
59 25 57
59 26 24
59 27 48
59 28 32
59 29 23
59 30 29
59 31 58
59 32 35
59 33 23
59 34 59
59 35 31
59 36 16
59 37 13
59 38 14
59 39 44
59 40 26
59 41 34
59 42 44
59 43 7
59 44 19
59 45 54
59 46 54
59 47 37
59 48 12
59 49 39
59 50 45
59 51 18
59 52 2
59 53 60
59 54 1
59 55 48
59 56 4
59 57 60
59 58 17
60 0 17
60 1 8
60 2 27
60 3 22
60 4 32
60 5 54
60 6 40
60 7 56
60 8 11
60 9 1
60 10 12
60 11 6
60 12 43
60 13 29
60 14 60
60 15 31
60 16 16
60 17 15
60 18 32
60 19 1
60 20 32
60 21 60
60 22 7
60 23 6
60 24 33
60 25 47
60 26 15
60 27 47
60 28 41
60 29 36
60 30 41
60 31 22
60 32 28
60 33 27
60 34 35
60 35 20
60 36 56
60 37 19
60 38 17
60 39 23
60 40 44
60 41 3
60 42 55
60 43 23
60 44 5
60 45 5
60 46 20
60 47 40
60 48 14
60 49 43
60 50 8
60 51 53
60 52 16
60 53 3
60 54 27
60 55 32
60 56 12
60 57 59
60 58 60
60 59 43
61 0 47
61 1 56
61 2 24
61 3 53
61 4 25
61 5 1
61 6 60
61 7 22
61 8 10
61 9 54
61 10 32
61 11 13
61 12 43
61 13 39
61 14 15
61 15 42
61 16 47
61 17 14
61 18 42
61 19 4
61 20 22
61 21 27
61 22 55
61 23 50
61 24 41
61 25 35
61 26 53
61 27 38
61 28 56
61 29 45
61 30 36
61 31 10
61 32 2
61 33 11
61 34 58
61 35 60
61 36 60
61 37 36
61 38 20
61 39 16
61 40 42
61 41 26
61 42 30
61 43 19
61 44 11
61 45 39
61 46 33
61 47 7
61 48 31
61 49 29
61 50 33
61 51 43
61 52 14
61 53 7
61 54 29
61 55 14
61 56 38
61 57 19
61 58 24
61 59 13
61 60 24
62 0 31
62 1 51
62 2 2
62 3 36
62 4 45
62 5 28
62 6 11
62 7 42
62 8 35
62 9 40
62 10 3
62 11 27
62 12 51
62 13 7
62 14 59
62 15 34
62 16 53
62 17 29
62 18 33
62 19 37
62 20 25
62 21 34
62 22 10
62 23 32
62 24 39
62 25 49
62 26 54
62 27 49
62 28 48
62 29 43
62 30 39
62 31 5
62 32 20
62 33 49
62 34 19
62 35 42
62 36 45
62 37 8
62 38 36
62 39 37
62 40 21
62 41 20
62 42 25
62 43 37
62 44 43
62 45 53
62 46 20
62 47 39
62 48 32
62 49 2
62 50 9
62 51 56
62 52 5
62 53 33
62 54 51
62 55 58
62 56 45
62 57 7
62 58 28
62 59 39
62 60 54
62 61 11
63 0 23
63 1 14
63 2 22
63 3 50
63 4 26
63 5 35
63 6 27
63 7 20
63 8 34
63 9 21
63 10 45
63 11 52
63 12 5
63 13 38
63 14 31
63 15 53
63 16 41
63 17 23
63 18 33
63 19 22
63 20 42
63 21 48
63 22 19
63 23 21
63 24 31
63 25 13
63 26 14
63 27 43
63 28 50
63 29 19
63 30 7
63 31 38
63 32 15
63 33 45
63 34 14
63 35 21
63 36 38
63 37 23
63 38 39
63 39 21
63 40 54
63 41 52
63 42 24
63 43 56
63 44 13
63 45 5
63 46 9
63 47 42
63 48 60
63 49 52
63 50 5
63 51 40
63 52 4
63 53 55
63 54 12
63 55 44
63 56 41
63 57 47
63 58 26
63 59 4
63 60 32
63 61 32
63 62 4
64 0 19
64 1 55
64 2 8
64 3 27
64 4 51
64 5 29
64 6 4
64 7 4
64 8 27
64 9 23
64 10 25
64 11 15
64 12 11
64 13 51
64 14 34
64 15 19
64 16 17
64 17 18
64 18 11
64 19 54
64 20 9
64 21 34
64 22 12
64 23 28
64 24 22
64 25 58
64 26 56
64 27 40
64 28 32
64 29 13
64 30 30
64 31 52
64 32 50
64 33 20
64 34 21
64 35 51
64 36 43
64 37 9
64 38 16
64 39 47
64 40 40
64 41 6
64 42 30
64 43 48
64 44 13
64 45 17
64 46 38
64 47 53
64 48 49
64 49 60
64 50 25
64 51 43
64 52 57
64 53 21
64 54 47
64 55 53
64 56 38
64 57 33
64 58 35
64 59 35
64 60 22
64 61 57
64 62 50
64 63 32
65 0 60
65 1 3
65 2 44
65 3 57
65 4 16
65 5 55
65 6 17
65 7 37
65 8 42
65 9 55
65 10 41
65 11 41
65 12 24
65 13 29
65 14 40
65 15 20
65 16 43
65 17 23
65 18 25
65 19 41
65 20 58
65 21 54
65 22 51
65 23 41
65 24 37
65 25 34
65 26 11
65 27 35
65 28 36
65 29 42
65 30 27
65 31 23
65 32 46
65 33 40
65 34 56
65 35 21
65 36 29
65 37 31
65 38 57
65 39 35
65 40 57
65 41 50
65 42 34
65 43 57
65 44 53
65 45 31
65 46 50
65 47 10
65 48 30
65 49 2
65 50 49
65 51 45
65 52 47
65 53 20
65 54 34
65 55 58
65 56 55
65 57 29
65 58 44
65 59 14
65 60 56
65 61 42
65 62 28
65 63 26
65 64 10
66 0 16
66 1 46
66 2 13
66 3 3
66 4 35
66 5 30
66 6 12
66 7 16
66 8 24
66 9 42
66 10 31
66 11 26
66 12 55
66 13 57
66 14 19
66 15 38
66 16 6
66 17 53
66 18 7
66 19 38
66 20 52
66 21 59
66 22 6
66 23 39
66 24 33
66 25 31
66 26 39
66 27 41
66 28 54
66 29 7
66 30 50
66 31 9
66 32 47
66 33 11
66 34 36
66 35 14
66 36 2
66 37 31
66 38 1
66 39 59
66 40 10
66 41 24
66 42 36
66 43 22
66 44 5
66 45 24
66 46 29
66 47 32
66 48 53
66 49 27
66 50 34
66 51 17
66 52 14
66 53 58
66 54 7
66 55 19
66 56 11
66 57 10
66 58 59
66 59 38
66 60 18
66 61 38
66 62 15
66 63 31
66 64 26
66 65 9
67 0 53
67 1 44
67 2 28
67 3 52
67 4 56
67 5 44
67 6 60
67 7 48
67 8 3
67 9 25
67 10 47
67 11 1
67 12 40
67 13 25
67 14 8
67 15 48
67 16 54
67 17 53
67 18 2
67 19 3
67 20 8
67 21 41
67 22 22
67 23 28
67 24 41
67 25 59
67 26 26
67 27 15
67 28 19
67 29 53
67 30 4
67 31 29
67 32 11
67 33 39
67 34 36
67 35 31
67 36 37
67 37 24
67 38 36
67 39 36
67 40 50
67 41 43
67 42 24
67 43 3
67 44 27
67 45 12
67 46 27
67 47 36
67 48 25
67 49 56
67 50 11
67 51 26
67 52 45
67 53 43
67 54 4
67 55 19
67 56 3
67 57 15
67 58 45
67 59 56
67 60 57
67 61 30
67 62 41
67 63 55
67 64 46
67 65 21
67 66 40
68 0 32
68 1 57
68 2 2
68 3 49
68 4 6
68 5 24
68 6 39
68 7 30
68 8 2
68 9 28
68 10 28
68 11 45
68 12 48
68 13 13
68 14 10
68 15 19
68 16 45
68 17 27
68 18 31
68 19 38
68 20 37
68 21 33
68 22 8
68 23 57
68 24 27
68 25 51
68 26 11
68 27 43
68 28 49
68 29 25
68 30 26
68 31 47
68 32 56
68 33 23
68 34 42
68 35 7
68 36 1
68 37 7
68 38 44
68 39 8
68 40 40
68 41 49
68 42 16
68 43 38
68 44 29
68 45 38
68 46 29
68 47 10
68 48 6
68 49 3
68 50 8
68 51 13
68 52 10
68 53 16
68 54 29
68 55 32
68 56 13
68 57 52
68 58 15
68 59 31
68 60 15
68 61 55
68 62 33
68 63 25
68 64 37
68 65 26
68 66 27
68 67 56
69 0 27
69 1 36
69 2 36
69 3 15
69 4 45
69 5 26
69 6 10
69 7 47
69 8 52
69 9 40
69 10 47
69 11 60
69 12 54
69 13 2
69 14 34
69 15 11
69 16 35
69 17 15
69 18 10
69 19 5
69 20 11
69 21 22
69 22 26
69 23 44
69 24 48
69 25 21
69 26 22
69 27 45
69 28 14
69 29 56
69 30 13
69 31 6
69 32 47
69 33 14
69 34 50
69 35 11
69 36 8
69 37 32
69 38 60
69 39 25
69 40 8
69 41 25
69 42 59
69 43 2
69 44 49
69 45 2
69 46 38
69 47 27
69 48 11
69 49 1
69 50 58
69 51 43
69 52 44
69 53 45
69 54 42
69 55 43
69 56 30
69 57 37
69 58 29
69 59 6
69 60 9
69 61 37
69 62 40
69 63 18
69 64 31
69 65 28
69 66 55
69 67 57
69 68 32
